121
1000000
105195
116783
61455
124080
64174
74450
237970
127897
156402
124838
79818
167431
231322
80858
203994
162359
230992
51754
158734
1973
215322
197835
68271
20661
246081
118398
242485
154462
21875
82844
90097
178360
3524
3123
66143
297
34082
139411
159369
5147
179
23658
145058
2623
38039
119690
194173
144368
204152
213986
218822
36516
53611
14278
90006
9652
208339
142528
145121
18649
90423
126968
56956
220806
153708
184291
161797
215018
126657
153604
72048
120455
32037
92202
102063
184485
237667
141087
82347
247130
159910
8000
14264
61637
103020
196109
173279
31246
105221
140283
235597
50680
209799
247806
127088
110991
66723
227896
4731
39347
190022
55184
223666
46101
237630
171681
245863
22154
245643
72113
120135
175134
222707
134712
34589
190525
239234
4131
177792
224673
217221
